c nIsolatedPIs 0
c maxPI 32
p cnf 100 205
c gate 33 11 27 0
11 -33 0
27 -33 0
-11 -27 33 0
c gate 34 -11 -27 0
-11 -34 0
-27 -34 0
11 27 34 0
c gate 35 -33 -34 0
-33 -35 0
-34 -35 0
33 34 35 0
c gate 36 -10 26 0
-10 -36 0
26 -36 0
10 -26 36 0
c gate 37 9 25 0
9 -37 0
25 -37 0
-9 -25 37 0
c gate 38 -9 -25 0
-9 -38 0
-25 -38 0
9 25 38 0
c gate 39 -37 -38 0
-37 -39 0
-38 -39 0
37 38 39 0
c gate 40 -2 18 0
-2 -40 0
18 -40 0
2 -18 40 0
c gate 41 -1 17 0
-1 -41 0
17 -41 0
1 -17 41 0
c gate 42 -40 -41 0
-40 -42 0
-41 -42 0
40 41 42 0
c gate 43 2 -18 0
2 -43 0
-18 -43 0
-2 18 43 0
c gate 44 3 -19 0
3 -44 0
-19 -44 0
-3 19 44 0
c gate 45 -43 -44 0
-43 -45 0
-44 -45 0
43 44 45 0
c gate 46 -42 45 0
-42 -46 0
45 -46 0
42 -45 46 0
c gate 47 -4 20 0
-4 -47 0
20 -47 0
4 -20 47 0
c gate 48 -3 19 0
-3 -48 0
19 -48 0
3 -19 48 0
c gate 49 -47 -48 0
-47 -49 0
-48 -49 0
47 48 49 0
c gate 50 -46 49 0
-46 -50 0
49 -50 0
46 -49 50 0
c gate 51 5 -21 0
5 -51 0
-21 -51 0
-5 21 51 0
c gate 52 4 -20 0
4 -52 0
-20 -52 0
-4 20 52 0
c gate 53 -51 -52 0
-51 -53 0
-52 -53 0
51 52 53 0
c gate 54 -50 53 0
-50 -54 0
53 -54 0
50 -53 54 0
c gate 55 -6 -22 0
-6 -55 0
-22 -55 0
6 22 55 0
c gate 56 6 22 0
6 -56 0
22 -56 0
-6 -22 56 0
c gate 57 -55 -56 0
-55 -57 0
-56 -57 0
55 56 57 0
c gate 58 -5 21 0
-5 -58 0
21 -58 0
5 -21 58 0
c gate 59 -57 -58 0
-57 -59 0
-58 -59 0
57 58 59 0
c gate 60 -54 59 0
-54 -60 0
59 -60 0
54 -59 60 0
c gate 61 7 -23 0
7 -61 0
-23 -61 0
-7 23 61 0
c gate 62 6 -22 0
6 -62 0
-22 -62 0
-6 22 62 0
c gate 63 -61 -62 0
-61 -63 0
-62 -63 0
61 62 63 0
c gate 64 -60 63 0
-60 -64 0
63 -64 0
60 -63 64 0
c gate 65 -7 23 0
-7 -65 0
23 -65 0
7 -23 65 0
c gate 66 8 24 0
8 -66 0
24 -66 0
-8 -24 66 0
c gate 67 -8 -24 0
-8 -67 0
-24 -67 0
8 24 67 0
c gate 68 -66 -67 0
-66 -68 0
-67 -68 0
66 67 68 0
c gate 69 -65 -68 0
-65 -69 0
-68 -69 0
65 68 69 0
c gate 70 -64 69 0
-64 -70 0
69 -70 0
64 -69 70 0
c gate 71 -39 70 0
-39 -71 0
70 -71 0
39 -70 71 0
c gate 72 10 -26 0
10 -72 0
-26 -72 0
-10 26 72 0
c gate 73 9 -25 0
9 -73 0
-25 -73 0
-9 25 73 0
c gate 74 8 -24 0
8 -74 0
-24 -74 0
-8 24 74 0
c gate 75 -39 74 0
-39 -75 0
74 -75 0
39 -74 75 0
c gate 76 -73 -75 0
-73 -76 0
-75 -76 0
73 75 76 0
c gate 77 -72 76 0
-72 -77 0
76 -77 0
72 -76 77 0
c gate 78 -71 77 0
-71 -78 0
77 -78 0
71 -77 78 0
c gate 79 -36 -78 0
-36 -79 0
-78 -79 0
36 78 79 0
c gate 80 -35 -79 0
-35 -80 0
-79 -80 0
35 79 80 0
c gate 81 -12 -28 0
-12 -81 0
-28 -81 0
12 28 81 0
c gate 82 12 28 0
12 -82 0
28 -82 0
-12 -28 82 0
c gate 83 -81 -82 0
-81 -83 0
-82 -83 0
81 82 83 0
c gate 84 -16 -32 0
-16 -84 0
-32 -84 0
16 32 84 0
c gate 85 16 32 0
16 -85 0
32 -85 0
-16 -32 85 0
c gate 86 -84 -85 0
-84 -86 0
-85 -86 0
84 85 86 0
c gate 87 -83 -86 0
-83 -87 0
-86 -87 0
83 86 87 0
c gate 88 -15 -31 0
-15 -88 0
-31 -88 0
15 31 88 0
c gate 89 15 31 0
15 -89 0
31 -89 0
-15 -31 89 0
c gate 90 -88 -89 0
-88 -90 0
-89 -90 0
88 89 90 0
c gate 91 -13 -29 0
-13 -91 0
-29 -91 0
13 29 91 0
c gate 92 13 29 0
13 -92 0
29 -92 0
-13 -29 92 0
c gate 93 -91 -92 0
-91 -93 0
-92 -93 0
91 92 93 0
c gate 94 -14 -30 0
-14 -94 0
-30 -94 0
14 30 94 0
c gate 95 14 30 0
14 -95 0
30 -95 0
-14 -30 95 0
c gate 96 -94 -95 0
-94 -96 0
-95 -96 0
94 95 96 0
c gate 97 -93 -96 0
-93 -97 0
-96 -97 0
93 96 97 0
c gate 98 -90 97 0
-90 -98 0
97 -98 0
90 -97 98 0
c gate 99 87 98 0
87 -99 0
98 -99 0
-87 -98 99 0
c gate 100 80 99 0
80 -100 0
99 -100 0
-80 -99 100 0
c PO
100 0
